!!! Generated by ASE !!!
&FORCE_EVAL
   METHOD Quickstep
   STRESS_TENSOR ANALYTICAL
   &DFT
      BASIS_SET_FILE_NAME BASIS_MOLOPT
      POTENTIAL_FILE_NAME POTENTIAL
      UNRESTRICTED_KOHN_SHAM ON
      &XC
         &XC_FUNCTIONAL PBE
         &END XC_FUNCTIONAL
         &VDW_POTENTIAL
            DISPERSION_FUNCTIONAL PAIR_POTENTIAL
            &PAIR_POTENTIAL
               TYPE DFTD3(BJ)
               PARAMETER_FILE_NAME dftd3.dat
               REFERENCE_FUNCTIONAL PBE
            &END PAIR_POTENTIAL
         &END VDW_POTENTIAL
      &END XC
      &SCF
         MAX_DIIS  8
         EPS_SCF  1.0E-06
         MAX_SCF 50
         &OT
            MINIMIZER  CG
            PRECONDITIONER  FULL_SINGLE_INVERSE
         &END OT
         &OUTER_SCF T
            MAX_SCF  25
            EPS_SCF  1.0E-06
         &END OUTER_SCF
      &END SCF
      &MGRID
         REL_CUTOFF [Ry] 60.0
         COMMENSURATE TRUE
         NGRIDS 5
         CUTOFF [eV] 1.360569301218362125e+04
      &END MGRID
      &LS_SCF
         MAX_SCF 50
      &END LS_SCF
   &END DFT
   &PRINT
      &STRESS_TENSOR ON
      &END STRESS_TENSOR
   &END PRINT
   &SUBSYS
      &COORD
         Fe1 1.070513066319029605e+01 4.280786557083318122e+00 7.418165192083074011e+00
         Fe1 -7.632088612347764922e-03 -6.292248238457531784e-03 1.483642874972318637e+01
         Fe1 -7.671814715408675767e-03 1.284875816739116772e+01 7.418255694330123440e+00
         Fe2 -2.680060608085029550e+00 -4.287117502153721560e+00 7.418192342757188307e+00
         Fe2 -2.680100377405507661e+00 8.567915610487393252e+00 9.198589044334541561e-06
         Fe2 2.672520444121362804e+00 4.280855915843466697e+00 7.418263112547093918e+00
         H 1.218341947779554246e+01 1.131000200644368903e+00 3.847081980167565529e+00
         H 1.469579838206021449e+00 4.663784093481543991e+00 1.389719969386311682e+01
         H 6.826850346645389145e+00 -5.806149204733404012e+00 1.193294456175439322e+01
         H 1.190805359326859048e+01 -1.137162494925858747e+00 3.844801768634946715e+00
         H 6.550766264152789731e+00 -4.675362271932185010e+00 1.389261122993772624e+01
         H 1.194261444858908838e+00 5.796785286167629003e+00 1.193223523184760282e+01
         H -6.838446734562515950e+00 7.430571877645983037e+00 1.098926650444799158e+01
         H 3.875281207358446611e+00 3.897905958931783932e+00 9.391646657367602735e-01
         H -1.481928191259878735e+00 1.436770929653719797e+01 2.903584482262244748e+00
         H -6.562995728922652816e+00 9.698962170351229872e+00 1.099167267730478237e+01
         H -1.205765927010698846e+00 1.323688623995170488e+01 9.438403678937312691e-01
         H 4.150791144143739508e+00 2.764919797265955381e+00 2.904243071564950984e+00
         H -2.264367394161991065e+00 2.689573714754688538e+00 2.668987376384022170e+00
         H 8.448818716101561321e+00 1.347812156993161459e+01 9.987768638602674276e-01
         H 3.086211173871352464e+00 9.532271960654689735e+00 1.117326454582276085e+01
         H 4.928704742202983269e+00 1.444088833548046225e+01 2.667259376922741954e+00
         H 1.029133251252797443e+01 3.657321311576045009e+00 9.926284972701664433e-01
         H -4.233524270621078500e-01 7.596617357623227207e+00 1.117224379916751786e+01
         H 7.609312074965060901e+00 5.871978393909627059e+00 1.216737579630113864e+01
         H -3.103868881434982185e+00 -4.916373795304970429e+00 1.383744729143885266e+01
         H 2.258722896529582691e+00 -9.707185313612982647e-01 3.663216428147902715e+00
         H 4.162321508371880086e-01 -5.878952096546328221e+00 1.216923821385393722e+01
         H -4.946446146698440849e+00 4.904230583077216821e+00 1.384383467297976544e+01
         H 5.768370419030920182e+00 9.650824956173909008e-01 3.664243257741061299e+00
         H -1.937605578569565390e+00 4.992474984462726084e+00 3.631029526531400098e+00
         H 8.777473572742522379e+00 1.149205605045633405e+01 2.510366313446159570e+00
         H 3.414635228361765584e+00 9.213282362208829568e+00 8.698103013021341923e+00
         H 4.600155159139523775e+00 1.213840188145185728e+01 3.630529687071878175e+00
         H 9.962995739243018178e+00 5.640734866795853009e+00 2.507270246411043679e+00
         H -7.501228370428938419e-01 7.915899646405440748e+00 8.696969212739459110e+00
         H 7.282610469114019658e+00 3.569038231077409584e+00 1.120532088682056937e+01
         H -3.432437929069711569e+00 -2.930278137091998580e+00 1.232590591189893381e+01
         H 1.930280967992150654e+00 -6.516392797157797290e-01 6.138302295136214504e+00
         H 7.447360917737650965e-01 -3.576472124935955232e+00 1.120589935937998760e+01
         H -4.618018832790612649e+00 2.920896889022413845e+00 1.232917482338947934e+01
         H 6.095100414890483265e+00 6.457424586166577996e-01 6.139518140897799903e+00
         H -3.229609018804073806e+00 5.659903358906092308e+00 5.672535299620481197e+00
         H 7.485478125584224429e+00 9.390255224395364309e+00 2.066194340991056588e+00
         H 2.124535536625640209e+00 1.064732435728176263e+01 7.098536329079022877e+00
         H 5.892205607771201947e+00 1.147126660770875972e+01 5.672476250613390114e+00
         H 1.125313756715637581e+01 7.743176743103529880e+00 2.065987521101898317e+00
         H 5.418549570783985914e-01 6.482302044709619793e+00 7.097631009879853181e+00
         H 8.574578829364828181e+00 2.901638048976336925e+00 9.163806360235463799e+00
         H -2.140601596825383979e+00 -8.284706826926369061e-01 1.277020607114329920e+01
         H 3.220350085724500655e+00 -2.085661262198033938e+00 7.737954436938043301e+00
         H -5.471436265460298820e-01 -2.909522382841359889e+00 9.163834401095614979e+00
         H -5.908151147001658110e+00 8.183930801780086028e-01 1.277042505690829088e+01
         H 4.803134982692668586e+00 2.079360621532829079e+00 7.738860794687589362e+00
         H -4.279920227010576284e+00 1.059433333924944165e+01 8.964559580418956841e+00
         H 6.435399694638620716e+00 4.070151403909985532e+00 4.690692889826493683e+00
         H 1.083411145947300147e+00 1.103571884575363171e+01 1.180863675814566971e+00
         H 6.942280513844321987e+00 6.536964568035654288e+00 8.965356000192990393e+00
         H -3.771165814288201634e+00 1.306122963844004659e+01 4.690836061414038305e+00
         H 1.592172074536531090e+00 6.101070985211874742e+00 1.178194898076994290e+00
         H 9.624873965363139661e+00 -2.032842030938104116e+00 5.871928960133017128e+00
         H -1.090532083468209290e+00 4.491471743002476202e+00 1.014564728638605651e+01
         H 4.261554958599883314e+00 -2.474033860214192693e+00 1.365572916486802413e+01
         H -1.597228445815917830e+00 2.024747640668496995e+00 5.871089811429230920e+00
         H 9.116122427667232131e+00 -4.499623717379438226e+00 1.014551405520925265e+01
         H 3.752838278800837202e+00 2.460505046173062205e+00 1.365832672772267209e+01
         H 2.651644888842589420e+00 -4.652880934760203147e+00 8.617124272919920003e+00
         H 8.006616289017308929e+00 3.425727334829743675e+00 6.499997789483401789e+00
         H -2.704895025456730995e+00 1.216532114115633334e+00 1.455512358250726379e+01
         H 5.371069135407963380e+00 4.647943143391787935e+00 8.617901405329826403e+00
         H 1.716623239415637769e-02 -3.431637225841845940e+00 6.500286061394903392e+00
         H -5.339341998896344421e+00 -1.227337723440301787e+00 1.455325508201654827e+01
         H 2.693296967479176462e+00 1.321441368304484953e+01 6.219432218499511222e+00
         H -2.661672785159572729e+00 5.135795852457524902e+00 8.336275474412069286e+00
         H 8.049871961837153478e+00 7.345229585792204752e+00 2.813964112846687460e-01
         H -2.607840161234475929e-02 3.913703574789800133e+00 6.218617698276069916e+00
         H 5.327758754800401064e+00 1.199329462740639940e+01 8.336094469917970429e+00
         H 1.068432970106464452e+01 9.788849953029767903e+00 2.831972576366063588e-01
         H -2.749745199173543320e-01 1.016952103731746604e+01 6.160385733602230296e+00
         H 1.044126939977983248e+01 6.709571797080586819e+00 5.725653145514348452e+00
         H 5.088041291659727960e+00 8.817426751160990506e+00 2.950761820005544767e+00
         H 2.936413708539810763e+00 6.961634052322132504e+00 6.162221445573933920e+00
         H 8.289534227397650668e+00 1.041883631764542884e+01 5.725748247055920004e+00
         H -2.412784021561671821e+00 8.316336139435740904e+00 2.949072543636854782e+00
         H 5.619923476183657840e+00 -1.607917816939831379e+00 8.676068979880355414e+00
         H -5.096319532203577474e+00 1.851953611043482439e+00 9.110636141729779425e+00
         H 2.570041499853639166e-01 -2.557256719534439782e-01 1.188566322060915681e+01
         H 2.408620441075163487e+00 1.600075472785053243e+00 8.674288904535936595e+00
         H -2.944673095245627259e+00 -1.857111916230781201e+00 9.110636141729779425e+00
         H 7.757666139720134524e+00 2.452081581410281430e-01 1.188732401102467762e+01
         H -1.814560506597001410e+00 8.237759188665723542e+00 6.333561486602000912e+00
         H 8.902000067071151435e+00 7.525905724216354287e+00 3.966266021314256207e+00
         H 3.547102081365911097e+00 9.933200347076828862e+00 4.537274964272257627e+00
         H 4.475713148909971295e+00 8.893396432118082728e+00 6.335920479598854627e+00
         H 9.830497702825804041e+00 9.603471887197185808e+00 3.965895555558712537e+00
         H -8.731683769238858250e-01 7.199826054652001872e+00 4.534980213034375041e+00
         H 7.159569054810681621e+00 3.237951322291099387e-01 8.502837886981980731e+00
         H -3.557100242619478880e+00 1.035727857769446203e+00 1.087011599364201153e+01
         H 1.797992421083648207e+00 -1.371590190000518739e+00 1.029918761252031878e+01
         H 8.693180782655196559e-01 -3.317350518932160597e-01 8.500573253704999388e+00
         H -4.485647870032225981e+00 -1.041816732161721326e+00 1.087052918832730874e+01
         H 6.218057723834416350e+00 1.361765590428312578e+00 1.030149452963403256e+01
         C -5.356846395365616686e+00 6.733476655794995658e+00 8.787076662281346984e+00
         C 5.356771674305432107e+00 6.153930248173617557e+00 1.437805934853551015e+00
         C 1.659189443822706167e-03 1.280966729720929997e+01 4.610084022023256622e+00
         C 8.020883683295782163e+00 1.039601367489771988e+01 8.788876470082909620e+00
         C -2.689401060888978456e+00 1.097971955701150826e+01 1.439001009607617565e+00
         C 2.669129972011242913e+00 4.322876086405494256e+00 4.609713111174695399e+00
         C 1.070176900690395172e+01 1.828082303825052879e+00 6.049294522078142222e+00
         C -1.188558343439893861e-02 2.407800926806978659e+00 1.339856702987801107e+01
         C 5.343237851608693134e+00 -4.248122459169666243e+00 1.022645155002431494e+01
         C -2.675863897575076145e+00 -1.834286032463799287e+00 6.047542635958214063e+00
         C 8.034459803635630948e+00 -2.418244796961638521e+00 1.339751586853318699e+01
         C 2.675897579013158722e+00 4.238865566739651314e+00 1.022680154150102005e+01
         C 9.331357036130196292e+00 4.875856354000149828e-01 6.883484147819260102e+00
         C -1.383092752621998045e+00 2.355052765506525425e+00 1.182085856733445972e+01
         C 3.970725609609776274e+00 -2.855865801806964477e+00 1.096823007312529619e+01
         C -1.304678744623208209e+00 -4.946718487730117353e-01 6.882604940743828337e+00
         C 9.406970413617624871e+00 -2.363819060561886509e+00 1.182092740838795386e+01
         C 4.046315934457643593e+00 2.845836043393623171e+00 1.096998982255521327e+01
         C -3.986380142045861774e+00 8.073976908337641589e+00 7.952920863609619140e+00
         C 6.727913322367127691e+00 6.206683099770216927e+00 3.015566176551560673e+00
         C 1.374295107039943620e+00 1.141745046766343208e+01 3.868336507069215724e+00
         C 6.649702648210013223e+00 9.056355436293589634e+00 7.953850662924795145e+00
         C -4.062049493971675140e+00 1.092535888241960507e+01 3.015516919590871758e+00
         C 1.298667529351053895e+00 5.715832967826623090e+00 3.866491003051110820e+00
         C -6.325945753974018260e+00 5.964995705667127446e+00 9.519712381329616946e+00
         C 4.387602422423741544e+00 5.903424730668888287e+00 4.053798904474106846e-01
         C -9.692484751643966057e-01 1.382817117044719879e+01 4.907974690379132809e+00
         C -7.075307382624777652e+00 1.116458121249957713e+01 9.522323296974814610e+00
         C -1.718498811623774492e+00 1.123147526802604013e+01 4.081206248896041555e-01
         C 3.638229587061058368e+00 3.304018933463157115e+00 4.908480167683553219e+00
         C 1.167087493829390432e+01 2.596574297706582879e+00 5.316679722401731034e+00
         C 9.573219107828645491e-01 2.658283310676496924e+00 1.443099337101283020e+01
         C 6.314167720477914969e+00 -5.266589754342851926e+00 9.928577646838794735e+00
         C 1.242033901448660593e+01 -2.602834363646389093e+00 5.314062575454277848e+00
         C 7.063499669740106235e+00 -2.669958425277086711e+00 1.442836346473218789e+01
         C 1.706829005339020267e+00 5.257695753180063214e+00 9.927981518922985416e+00
         C 1.235760334070257649e+01 2.148975523925882314e+00 4.186937501929731908e+00
         C 1.644044765153600096e+00 3.860402962442323727e+00 1.460900817530727736e+01
         C 7.001366633320035504e+00 -6.020696527985919033e+00 1.088127536579618493e+01
         C 1.173361657936620261e+01 -2.155453246592305305e+00 4.184209230092050369e+00
         C 6.376277041314997618e+00 -3.872135159080651867e+00 1.460454047995418136e+01
         C 1.020051828033595953e+00 6.011865505897264761e+00 1.088079362678607076e+01
         C -7.012680665329682483e+00 6.412566046962711930e+00 1.064942374201901565e+01
         C 3.700916441940742985e+00 4.701304675880637163e+00 2.273055920528537222e-01
         C -1.656360446258647423e+00 1.458230804846959927e+01 3.955204717988443530e+00
         C -6.388584312150419997e+00 1.071727083381307466e+01 1.065225408852222166e+01
         C -1.031353285816529297e+00 1.243368851971710676e+01 2.319005840091776516e-01
         C 4.324963322890241102e+00 2.549829545738534264e+00 3.955701738525516653e+00
         C -2.814375331307827910e+00 3.007915759448337223e+00 3.555380923688150396e+00
         C 7.898370608962991035e+00 1.255146510611648836e+01 8.318307811086033121e-01
         C 2.536126406431205460e+00 1.014001405697544556e+01 1.045377642944129448e+01
         C 5.479232787617261735e+00 1.412178301782978807e+01 3.553094184124597099e+00
         C 1.084145568623747202e+01 4.584347005661860486e+00 8.264344733550463840e-01
         C 1.266513448434749556e-01 6.988448295898118445e+00 1.045310537753407765e+01
         C 8.159355290925429216e+00 5.553634197162679698e+00 1.128100583892697806e+01
         C -2.553387976206938692e+00 -3.989731153316264489e+00 1.400445761594948735e+01
         C 2.808904820744290820e+00 -1.578352676750580663e+00 4.382717303862559532e+00
         C -1.342644032367590334e-01 -5.559941688293486450e+00 1.128334791838913809e+01
         C -5.496576664461621853e+00 3.977261788133645837e+00 1.401001029971679834e+01
         C 5.218322582662629827e+00 1.573230653150373914e+00 4.383377821901678573e+00
         C -2.628756287602184383e+00 4.286186911299012969e+00 4.087302391238664789e+00
         C 8.085576728362269705e+00 1.145070142578584615e+01 1.671220725310897715e+00
         C 2.722977721090568348e+00 9.961451118863966059e+00 9.081009266790051271e+00
         C 5.292080515893237802e+00 1.284422774159854086e+01 4.086171558243568924e+00
         C 1.065463872130993472e+01 5.683549901183070574e+00 1.667886830239684093e+00
         C -5.895793859832920703e-02 7.167512578574016580e+00 9.080206912442440270e+00
         C 7.973729684670445295e+00 4.275334784186211934e+00 1.074905351159386413e+01
         C -2.740559391368273978e+00 -2.888962328409031777e+00 1.316505876988682644e+01
         C 2.622005694308835011e+00 -1.399790930560581570e+00 5.755466662793073063e+00
         C 5.284366597109846353e-02 -4.282355321545884053e+00 1.075029680475824456e+01
         C -5.309699318906758947e+00 2.878002782116123370e+00 1.316853524308822720e+01
         C 5.403951610258107330e+00 1.394156329943843087e+00 5.756313823171189448e+00
         C -3.341902035913832947e+00 4.671092438044560424e+00 5.221823575447873900e+00
         C 7.372251484267482446e+00 1.027580798530578932e+01 1.436660413788852564e+00
         C 2.010162618093895848e+00 1.075149842899810437e+01 8.179996194207687310e+00
         C 6.005371487242630479e+00 1.245942099094645528e+01 5.220787843994349586e+00
         C 1.136747705838993028e+01 6.858968266558900240e+00 1.434684942609411928e+00
         C 6.541766432775593110e-01 6.377777094194495788e+00 8.179264312921302960e+00
         C 8.686843194043950334e+00 3.890461994285506542e+00 9.614515413849961334e+00
         C -2.027252762891706972e+00 -1.714038491835888856e+00 1.339966640963315037e+01
         C 3.334783816365793019e+00 -2.189837751929354148e+00 6.656539081111207956e+00
         C -6.604220911689253626e-01 -3.897611352127107409e+00 9.615629036581681888e+00
         C -6.022500115895716100e+00 1.702602842993347743e+00 1.340172511320700721e+01
         C 4.690848102743677472e+00 2.183899111079817157e+00 6.657223634173313087e+00
         C 8.505405838401712160e+00 -6.759328499373919996e-01 7.133351356604095805e+00
         C -2.210103790580915106e+00 2.720602335708619535e+00 1.068863183763445690e+01
         C 3.142766995859422430e+00 -2.058371780995511990e+00 1.185012209800693839e+01
         C -4.776357941467317403e-01 6.684924914951153596e-01 7.132592769736616489e+00
         C 1.023489248815957886e+01 -2.728302557079952173e+00 1.068915793758205623e+01
         C 4.872260684084587012e+00 2.047286057915592039e+00 1.185231447785061754e+01
         C -3.160434830278489482e+00 9.237468487476899526e+00 7.703060182855717919e+00
         C 7.554978076544524690e+00 5.841040506515041031e+00 4.147734153973154037e+00
         C 2.202239841980593305e+00 1.062002808530072606e+01 2.986420447164586545e+00
         C 5.822635367192291689e+00 7.893177368674838768e+00 7.703906453047796532e+00
         C -4.889979964900142306e+00 1.128993074586661827e+01 4.147213246777433859e+00
         C 4.726792466205720356e-01 6.514337449494125742e+00 2.984184893298134966e+00
         C 8.753790560587319192e+00 -1.909574605212019716e+00 6.512299863779822395e+00
         C -1.961672115836283314e+00 3.875399593602074866e+00 9.931704722020850085e+00
         C 3.390521936177695927e+00 -1.980622615080717352e+00 1.322891047900939654e+01
         C -7.260764773994454746e-01 1.901672310143063260e+00 6.511508191664652223e+00
         C 9.987171435156822596e+00 -3.883196401959572164e+00 9.931934241653939566e+00
         C 4.623898379771852696e+00 1.967714481823126249e+00 1.323117615083675247e+01
         C -3.408852936511362675e+00 1.047107354477185837e+01 8.324175175617263278e+00
         C 7.306533884263001433e+00 4.686213950100753145e+00 4.904652070997714830e+00
         C 1.954468718358696400e+00 1.054231267653980808e+01 1.607633549805522755e+00
         C 6.071095128395956664e+00 6.659968423118507452e+00 8.324981239073359518e+00
         C -4.642217785299422417e+00 1.244482356170435722e+01 4.904439019806301481e+00
         C 7.210773815714299761e-01 6.593847839170627445e+00 1.605349332435739296e+00
         C 7.870859332781990680e+00 -2.960698714756407668e+00 6.695151493903856554e+00
         C -2.844379227328585280e+00 4.243184716658130462e+00 8.930050183433099420e+00
         C 2.507569238803388778e+00 -1.296672416717501441e+00 1.404777629395302974e+01
         C 1.566582209195583886e-01 2.952929136252840259e+00 6.694255818386749546e+00
         C 1.087013293363280830e+01 -4.249957658092200496e+00 8.930052112169512668e+00
         C 5.506820660163654679e+00 1.283428047683957018e+00 1.404972728501646451e+01
         C -2.525931786752726893e+00 1.152224966611073143e+01 8.141313605082489246e+00
         C 8.189281642613305934e+00 4.318365539833449951e+00 5.906236136524238844e+00
         C 2.837367219621835357e+00 9.858393500036010337e+00 7.887540853426635579e-01
         C 5.188357573607302875e+00 5.608732749949965957e+00 8.142256905552549995e+00
         C -5.525164515346356886e+00 1.281165191190974362e+01 5.906304977577731208e+00
         C -1.618489652205694074e-01 7.278091984513335611e+00 7.867115534818029943e-01
         C -1.179721092769426161e+00 1.024308976556023154e+01 6.759064180769930097e+00
         C 9.536598587350956890e+00 6.154478634563405492e+00 5.490014521973363593e+00
         C 4.183664389196968258e+00 9.299816195022859944e+00 2.587750779060678852e+00
         C 3.841040896409456451e+00 6.887846488419301139e+00 6.760793663874603787e+00
         C 9.193924343300174939e+00 1.097448517893114683e+01 5.489773133193120103e+00
         C -1.508054844099687708e+00 7.834795986584497385e+00 2.585832576516256420e+00
         C 6.524619304740081560e+00 -1.681518664487702264e+00 8.077365755867973007e+00
         C -4.191680228675570774e+00 2.407081208051800481e+00 9.346295239549604617e+00
         C 1.161356469473706632e+00 -7.381547120956071240e-01 1.224870304423586909e+01
         C 1.503983704382721331e+00 1.673803762308958554e+00 8.075679298421730934e+00
         C -3.849040498280976497e+00 -2.412800536802959694e+00 9.346620454181623572e+00
         C 6.852994236270653516e+00 7.267739140868272329e-01 1.225059943722239630e+01
         C -2.036945596494775135e+00 9.162972731441209717e+00 6.863468759880484882e+00
         C 8.679223019199863387e+00 6.604590933517325624e+00 4.502650288194667283e+00
         C 3.325801196452257358e+00 9.930080269104617940e+00 3.470942772284360434e+00
         C 4.698398484373750961e+00 7.967981900042983234e+00 6.865202693915342103e+00
         C 1.005179900870341925e+01 1.052519692865087819e+01 4.502156383308721921e+00
         C -6.508144137521232331e-01 7.203953738474472956e+00 3.468770273262163695e+00
         C 7.381878324104755862e+00 -6.014397434532154918e-01 7.972927498052367667e+00
         C -3.334348084440760029e+00 1.957010006099419996e+00 1.033372801765311522e+01
         C 2.019217523570691064e+00 -1.368465404646151740e+00 1.136553152529102917e+01
         C 6.466547688490593693e-01 5.936553262376413898e-01 7.971272938939102382e+00
         C -4.706911571984241149e+00 -1.963540736093814409e+00 1.033424640265506689e+01
         C 5.995738250645093359e+00 1.357642965439485039e+00 1.136769571591021766e+01
         N 1.008968717490251166e+01 2.481504408675222706e+00 7.073259793299906839e+00
         N -6.227687547281801628e-01 1.193643661587866944e+00 1.345167671573321044e+01
         N 4.734643790280392395e+00 -3.686069176279668902e+00 9.147707197400144707e+00
         N -2.064938965954847383e+00 -2.487755468230087086e+00 7.072206109761312476e+00
         N 8.643020530893060993e+00 -1.203016279641322406e+00 1.345067184406228655e+01
         N 3.287950822633586956e+00 3.679220833460816742e+00 9.148707914869564917e+00
         N -4.744774669203026818e+00 6.080063048102481993e+00 7.763076525439817743e+00
         N 5.967687171124330447e+00 7.368089382651472619e+00 1.384733043354529292e+00
         N 6.102527627824989587e-01 1.224765591705278212e+01 5.688815763678577220e+00
         N 7.409971187817937732e+00 1.104946906590733491e+01 7.764197269659832479e+00
         N -3.297997453091050080e+00 9.764543745908943251e+00 1.385814025931577875e+00
         N 2.057070880454663797e+00 4.882519953648614575e+00 5.687828398999704937e+00
         N 9.198707908026761970e+00 1.628610030093248007e+00 7.613316522674098863e+00
         N -1.514217465767396575e+00 1.152159078429345840e+00 1.244335141971624381e+01
         N 3.842397461664240677e+00 -2.792257540501161373e+00 9.614866443877039259e+00
         N -1.173475689255703003e+00 -1.635516097933325419e+00 7.612637607456891331e+00
         N 9.535280733594376557e+00 -1.160209082397881453e+00 1.244304786627778192e+01
         N 4.178948901316760001e+00 2.784861160763133725e+00 9.616902447706964452e+00
         N -3.853773381472424653e+00 6.932942009914132342e+00 7.223006740003756754e+00
         N 6.859095110693619546e+00 7.409576606755226891e+00 2.393093798448617360e+00
         N 1.502565939891419289e+00 1.135388572972730614e+01 5.221704587247655738e+00
         N 6.518527681082064262e+00 1.019717622618605546e+01 7.223778234568765555e+00
         N -4.190344922891176438e+00 9.721790215268196533e+00 2.393365008461085797e+00
         N 1.166047703015294701e+00 5.776838418162645539e+00 5.219625112666277822e+00
         N -4.913314743537442908e+00 7.990869304326169598e+00 8.942147218212436854e+00
         N 5.801626058055214585e+00 5.390881026547424071e+00 2.448701791415389906e+00
         N 4.485952769048910937e-01 1.231654173170615252e+01 3.444293421272547562e+00
         N 7.575994169086206931e+00 9.138955084206553892e+00 8.943776110294981763e+00
         N -3.136322330023139759e+00 1.174234178098949499e+01 2.449260976610681873e+00
         N 2.225602002177916816e+00 4.817766677978958967e+00 3.443462432607429680e+00
         N 1.025830423441789563e+01 5.706791946548133154e-01 5.894242066596462770e+00
         N -4.567679430271596175e-01 3.170864784910724765e+00 1.238770574220725784e+01
         N 4.896342262719371341e+00 -3.754990711694890848e+00 1.139221158772110343e+01
         N -2.231008347181237639e+00 -5.772483630507645458e-01 5.892679196644962758e+00
         N 8.481357726531211227e+00 -3.180811056490034261e+00 1.238721925553828385e+01
         N 3.119385022481409919e+00 3.743925792762260230e+00 1.139305756118450397e+01
         N 9.565993708843842924e+00 4.708568976562904851e+00 8.999725637971108583e+00
         N -1.146997724168770993e+00 -1.591470891699989565e+00 1.441486023274378425e+01
         N 4.215026022309931619e+00 -3.130618559464069861e+00 6.255892754913143783e+00
         N -1.540667839733292910e+00 -4.715272411465246449e+00 9.001545623322831702e+00
         N -6.902751794148162645e+00 1.578731392370469777e+00 1.441674342130410125e+01
         N 3.811684501901641653e+00 3.125541798817364381e+00 6.256504312720252869e+00
         N -4.221084350072719538e+00 3.852967981166201206e+00 5.836603856009001667e+00
         N 6.491946382876881749e+00 1.015320114059421464e+01 4.214743056238682284e-01
         N 1.129922844464930076e+00 1.169228234049134585e+01 8.580596824189207439e+00
         N 6.885677343536154460e+00 1.327703476270513860e+01 5.834853453532468315e+00
         N 1.224771019524306048e+01 6.982835507297846078e+00 4.196937851864318003e-01
         N 1.533375405497226840e+00 5.436149814494426913e+00 8.580017164715075140e+00
         N 6.733495114580177798e+00 -2.854570530372747328e+00 7.428251444970187300e+00
         N -3.981648264203731191e+00 3.555476980450613667e+00 8.655090707378713333e+00
         N 1.370590688452255179e+00 -7.144260912049249512e-01 1.358919992451185621e+01
         N 1.293935955446286368e+00 2.846904832333200908e+00 7.427271943601305715e+00
         N 1.200711011030454856e+01 -3.561571065092600019e+00 8.655372302894942749e+00
         N 6.644165488954445919e+00 7.017970960293249405e-01 1.359104587362297778e+01
         N -1.388568212153936887e+00 1.141615464716006656e+01 7.408196295388446373e+00
         N 9.326566574469234538e+00 5.006074296349996899e+00 6.181214009756714312e+00
         N 3.974370657682405827e+00 9.276093130464040826e+00 1.247284016745596968e+00
         N 4.051098155991602390e+00 5.714778652484993060e+00 7.409223570074622955e+00
         N -6.662153688428604781e+00 1.212322889524530822e+01 6.181007783324913518e+00
         N -1.299210079326050149e+00 7.859747784662041603e+00 1.245389700859821813e+00
      &END COORD
      &CELL
         PERIODIC XYZ
         A 1.606537356000000116e+01 0.000000000000000000e+00 0.000000000000000000e+00
         B -5.360234619915134502e+00 1.713593233082244538e+01 0.000000000000000000e+00
         C -5.360176274423769982e+00 -8.574294315642765341e+00 1.483643394247506642e+01
      &END CELL
      &KIND C
         BASIS_SET DZVP-MOLOPT-SR-GTH
         POTENTIAL GTH-PBE
      &END KIND
      &KIND N
         BASIS_SET DZVP-MOLOPT-SR-GTH
         POTENTIAL GTH-PBE
      &END KIND
      &KIND Fe1
         ELEMENT Fe
         BASIS_SET DZVP-MOLOPT-SR-GTH
         POTENTIAL GTH-PBE
         &BS
          &ALPHA
           N 3 4
           L 2 0
           NEL 4 -2
          &END ALPHA
          &BETA
           N 3 4
           L 2 0
           NEL -6 -2
          &END BETA
         &END BS
      &END KIND
      &KIND Fe2
         ELEMENT Fe
         BASIS_SET DZVP-MOLOPT-SR-GTH
         POTENTIAL GTH-PBE
         &BS
          &ALPHA
           N 3 4
           L 2 0
           NEL -6 -2
          &END ALPHA
          &BETA
           N 3 4
           L 2 0
           NEL 4 -2
          &END BETA
         &END BS
      &END KIND
      &KIND H
         BASIS_SET DZVP-MOLOPT-SR-GTH
         POTENTIAL GTH-PBE
      &END KIND
   &END SUBSYS
&END FORCE_EVAL
&GLOBAL
   PROJECT cp2k
   PRINT_LEVEL MEDIUM
&END GLOBAL

